400, 40310
230, 230
206, 206
8, 8
110, 110
221, 221
142, 142
114, 114
193, 193
229, 229
76, 76
217, 217
272, 272
204, 204
19, 19
110, 110
35, 35
67, 67
391, 391
262, 262
298, 298
58, 58
150, 150
327, 327
27, 27
42, 42
58, 58
64, 64
227, 227
366, 366
331, 331
210, 210
109, 109
15, 15
386, 386
303, 303
368, 368
363, 363
265, 265
174, 174
322, 322
257, 257
77, 77
295, 295
123, 123
60, 60
389, 389
49, 49
36, 36
138, 138
109, 109
390, 390
30, 30
135, 135
107, 107
399, 399
95, 95
75, 75
386, 386
129, 129
8, 8
140, 140
389, 389
20, 20
178, 178
337, 337
211, 211
76, 76
38, 38
37, 37
336, 336
326, 326
203, 203
148, 148
149, 149
289, 289
154, 154
261, 261
142, 142
166, 166
174, 174
4, 4
209, 209
149, 149
328, 328
219, 219
335, 335
333, 333
238, 238
92, 92
130, 130
216, 216
131, 131
62, 62
22, 22
1, 1
386, 386
145, 145
276, 276
211, 211
20, 20
127, 127
169, 169
175, 175
353, 353
210, 210
70, 70
25, 25
371, 371
380, 380
305, 305
400, 400
214, 214
295, 295
168, 168
264, 264
299, 299
137, 137
197, 197
166, 166
364, 364
275, 275
221, 221
343, 343
58, 58
326, 326
387, 387
397, 397
82, 82
227, 227
10, 10
151, 151
174, 174
238, 238
215, 215
172, 172
55, 55
14, 14
21, 21
228, 228
168, 168
260, 260
321, 321
323, 323
302, 302
293, 293
294, 294
99, 99
332, 332
357, 357
355, 355
13, 13
219, 219
34, 34
312, 312
115, 115
255, 255
282, 282
368, 368
173, 173
244, 244
186, 186
72, 72
46, 46
279, 279
293, 293
110, 110
242, 242
193, 193
349, 349
229, 229
134, 134
238, 238
288, 288
228, 228
244, 244
348, 348
338, 338
302, 302
234, 234
239, 239
131, 131
380, 380
150, 150
17, 17
125, 125
102, 102
352, 352
183, 183
109, 109
146, 146
116, 116
270, 270
155, 155
291, 291
346, 346
116, 116
199, 199
146, 146
356, 356
116, 116
242, 242
298, 298
275, 275
57, 57
70, 70
317, 317
343, 343
35, 35
163, 163
52, 52
305, 305
184, 184
296, 296
356, 356
374, 374
241, 241
330, 330
364, 364
210, 210
85, 85
195, 195
235, 235
246, 246
164, 164
122, 122
366, 366
273, 273
393, 393
74, 74
135, 135
198, 198
387, 387
322, 322
73, 73
255, 255
173, 173
393, 393
192, 192
142, 142
248, 248
44, 44
94, 94
28, 28
170, 170
54, 54
399, 399
400, 400
16, 16
395, 395
62, 62
157, 157
191, 191
272, 272
48, 48
360, 360
152, 152
266, 266
174, 174
229, 229
58, 58
113, 113
97, 97
285, 285
34, 34
289, 289
230, 230
318, 318
125, 125
158, 158
273, 273
303, 303
222, 222
1, 1
157, 157
126, 126
74, 74
179, 179
385, 385
89, 89
177, 177
244, 244
271, 271
293, 293
215, 215
296, 296
198, 198
174, 174
144, 144
176, 176
375, 375
171, 171
107, 107
193, 193
340, 340
173, 173
197, 197
306, 306
324, 324
100, 100
286, 286
39, 39
68, 68
238, 238
377, 377
21, 21
72, 72
349, 349
188, 188
226, 226
174, 174
212, 212
248, 248
234, 234
3, 3
286, 286
66, 66
240, 240
303, 303
42, 42
320, 320
175, 175
76, 76
343, 343
303, 303
12, 12
68, 68
280, 280
97, 97
395, 395
104, 104
373, 373
212, 212
250, 250
109, 109
78, 78
157, 157
109, 109
192, 192
76, 76
84, 84
39, 39
170, 170
357, 357
217, 217
289, 289
127, 127
139, 139
372, 372
379, 379
49, 49
291, 291
42, 42
316, 316
305, 305
13, 13
27, 27
248, 248
69, 69
292, 292
57, 57
365, 365
133, 133
228, 228
163, 163
313, 313
352, 352
195, 195
47, 47
172, 172
12, 12
382, 382
182, 182
54, 54
282, 282
273, 273
312, 312
141, 141
327, 327
82, 82
1, 1
284, 284
254, 254
122, 122
84, 84
251, 251
379, 379
321, 321
275, 275
71, 71
347, 347
117, 117
17, 17
303, 303
112, 112
343, 343
254, 254
378, 378
145, 145
322, 322
322, 322
